StudentsNr = 10;
InstructorsNr = 38;
DaysNr = 1;
SlotsPerDay = 60;
AvailabilitySlotsLenght = 60;
RoomNr = 1;
ProgrammNr = 1;
DegreeNr = 2;
RolesNr = 1;
CoursesNr = 5;
InstructorsProgramm = [{1}, {1}, {1}, {1}, {1}, {1}, {1}, {1}, {1}, {1}, {1}, {1}, {1}, {1}, {1}, {1}, {1}, {1}, {1}, {1}, {1}, {1}, {1}, {1}, {1}, {1}, {1}, {1}, {1}, {1}, {1}, {1}, {1}, {1}, {1}, {1}, {1}, {1}];
InstructorRolesPerProgramm = [|{1, 2, 3, 4, 5, 9, 10, 13, 15, 16, 18, 21, 23, 24, 27, 30, 32, 33, 34, 37, 38}|];
InstructorsAvailability = [|0, |0, |0, |1, |0, |0, |0, |0, |1, |0, |1, |1, |0, |1, |0, |1, |1, |1, |0, |1, |1, |0, |1, |0, |0, |0, |0, |1, |1, |0, |1, |1, |0, |0, |1, |1, |1, |0|];
StudentsProgramm = [1, 1, 1, 1, 1, 1, 1, 1, 1, 1];
StudentsDegree = [1, 1, 2, 2, 1, 1, 2, 2, 2, 2];
StudentsSupervisorId = [34, 6, 25, 22, 21, 1, 8, 34, 2, 13];
StudentsCourseIds = [{1, 2, 3, 5}, {1, 3, 4, 5}, {5}, {1}, {1, 2, 3, 5}, {1, 3, 4, 5}, {5}, {3}, {3}, {2}];
StudentsAvailability = [|0, |0, |1, |1, |1, |1, |1, |0, |0, |0|];
TheoryticalMinCard = [0, 0, 1, 0, 0, 0, 1, 0, 0, 0];
CoursesInstructorIds = [{1, 3, 5, 6, 9, 11, 13, 16, 17, 18, 19, 20, 21, 22, 23, 25, 27, 29, 36, 37}, {1, 4, 5, 6, 11, 13, 15, 19, 20, 24, 26, 31, 32, 33, 36, 37}, {2, 4, 8, 11, 14, 17, 19, 22, 23, 24, 25, 26, 29, 30, 31, 33, 34, 36}, {3, 4, 11, 17, 19, 20, 27}, {2, 3, 22, 23, 29, 31, 32, 33, 35}];
RolesDemands = [14];
RolesContinuity = [];
ExamLen = [1, 1, 2, 2, 1, 1, 2, 2, 2, 2];
LunchTsMinLen = 1;
LunchStarts = [20..33];
SupervisorAvailable = 5;
OptimalLunchLenght = [3, 1];
OptimalStartTs = [1, 0];
OptimalFinishTs = [2, 60];
MinimizeRooms = 300;
RolesSoftContinuity = [|1|1|];
SameDegreeInRoom = 10;
Mergeability = 1;
